41 54 11 43 3 15 7 33 1 46 2 21 72 13 4 25 24 58 60 5 19 71 6 14 54 41
41 54 14 6 71 19 5 60 58 24 25 4 13 72 21 2 46 1 33 7 15 3 43 11 54 41
41 54 14 18 19 5 60 58 24 25 4 13 72 21 2 46 1 33 7 15 3 26 6 14 54 41
41 54 11 43 3 15 7 33 1 46 2 21 72 13 4 25 24 58 60 5 19 71 6 26 3 43 11 54 41
